param set_len = 20;
param target_sum = 699772;
param values := [1] 76501 [2] 43341 [3] 83468 [4] 93525 [5] 105287 [6] 78719 [7] 75286 [8] 18802 [9] 129721 [10] 57321 [11] 23638 [12] 66926 [13] 121668 [14] 59304 [15] 27667 [16] 111269 [17] 48609 [18] 28554 [19] 66673 [20] 103839 ;
